30	100	100	100
7	19	13
18	5	14
12	22	10
7	2	2
22	17	6
32	32	5
29	19	29
20	25	6
30	31	2
20	6	8
2	8	26
19	19	19
11	26	34
28	30	6
5	32	2
28	29	19
11	23	32
6	3	14
15	34	18
4	4	8
18	19	30
23	18	7
13	30	6
31	22	19
19	1	18
32	26	21
16	25	28
7	12	1
17	21	8
27	2	2
